&CONTROL
	calculation = 'scf'
	restart_mode = 'from_scratch'
	prefix = 'hBN'
	pseudo_dir ='./pseudo/'
	outdir='./output/'
	verbosity = 'high'
/
&SYSTEM
	ibrav = 4		! Hexagonal structure
	celldm(1) =  4.739432779	! celldm(1) = a [a.u.] 
	celldm(3) =  7.9892204	! celldm(3) = c/a
	nat = 2
	ntyp = 2
	ecutwfc = 50		! [Ry]
/
&ELECTRONS
	conv_thr = 1.0e-8
/
&IONS
    ion_dynamics="bfgs"
/
ATOMIC_SPECIES
 B 10 B.pbe-n-kjpaw_psl.1.0.0.UPF
 N 14 N.pbe-n-kjpaw_psl.1.0.0.UPF 
ATOMIC_POSITIONS {crystal}
B   0.6666667  0.3333333  0.0000000
N   0.3333333  0.6666667  0.0000000
K_POINTS {automatic}
 1 1 1 0 0 0
